p cnf 738 1995
a 1 2 3 4 5 6 7 8 17 18 19 20 21 22 23 24 25 26 27 28 29 30 31 32 33 34 35 36 37 38 39 40 41 42 43 44 45 46 47 48 49 50 51 52 53 54 55 56 57 58 59 60 61 62 63 64 65 66 67 68 69 70 71 72 73 74 75 76 77 78 79 80 81 82 0
e 9 10 11 12 13 14 15 16 83 84 85 86 87 88 89 90 91 92 93 94 95 96 97 98 99 100 101 102 103 104 105 106 107 108 109 110 111 112 113 114 115 116 117 118 119 120 121 122 123 124 125 126 127 128 129 130 131 132 133 134 135 136 137 138 139 140 141 142 143 144 145 146 147 148 149 150 151 152 153 154 155 156 157 158 159 160 161 162 163 164 165 166 167 168 169 170 171 172 173 174 175 176 177 178 179 180 181 182 183 184 185 186 187 188 189 190 191 192 193 194 195 196 197 198 199 200 201 202 203 204 205 206 207 208 209 210 211 212 213 214 215 216 217 218 219 220 221 222 223 224 225 226 227 228 229 230 231 232 233 234 235 236 237 238 239 240 241 242 243 244 245 246 247 248 249 250 251 252 253 254 255 256 257 258 259 260 261 262 263 264 265 266 267 268 269 270 271 272 273 274 275 276 277 278 279 280 281 282 283 284 285 286 287 288 289 290 291 292 293 294 295 296 297 298 299 300 301 302 303 304 305 306 307 308 309 310 311 312 313 314 315 316 317 318 319 320 321 322 323 324 325 326 327 328 329 330 331 332 333 334 335 336 337 338 339 340 341 342 343 344 345 346 347 348 349 350 351 352 353 354 355 356 357 358 359 360 361 362 363 364 365 366 367 368 369 370 371 372 373 374 375 376 377 378 379 380 381 382 383 384 385 386 387 388 389 390 391 392 393 394 395 396 397 398 399 400 401 402 403 404 405 406 407 408 409 410 411 412 413 414 415 416 417 418 419 420 421 422 423 424 425 426 427 428 429 430 431 432 433 434 435 436 437 438 439 440 441 442 443 444 445 446 447 448 449 450 451 452 453 454 455 456 457 458 459 460 461 462 463 464 465 466 467 468 469 470 471 472 473 474 475 476 477 478 479 480 481 482 483 484 485 486 487 488 489 490 491 492 493 494 495 496 497 498 499 500 501 502 503 504 505 506 507 508 509 510 511 512 513 514 515 516 517 518 519 520 521 522 523 524 525 526 527 528 529 530 531 532 533 534 535 536 537 538 539 540 541 542 543 544 545 546 547 548 549 550 551 552 553 554 555 556 557 558 559 560 561 562 563 564 565 566 567 568 569 570 571 572 573 574 575 576 577 578 579 580 581 582 583 584 585 586 587 588 589 590 591 592 593 594 595 596 597 598 599 600 601 602 603 604 605 606 607 608 609 610 611 612 613 614 615 616 617 618 619 620 621 622 623 624 625 626 627 628 629 630 631 632 633 634 635 636 637 638 639 640 641 642 643 644 645 646 647 648 649 650 651 652 653 654 655 656 657 658 659 660 661 662 663 664 665 666 667 668 669 670 671 672 673 674 675 676 677 678 679 680 681 682 683 684 685 686 687 688 689 690 691 692 693 694 695 696 697 698 699 700 701 702 703 704 705 706 707 708 709 710 711 712 713 714 715 716 717 718 719 720 721 722 723 724 725 726 727 728 729 730 731 732 733 734 735 736 737 738 0
-738 0
738 -536 0
738 -585 0
738 -600 0
738 -615 0
738 -624 0
738 -633 0
738 -650 0
738 -659 0
738 -668 0
738 -677 0
738 -686 0
738 -695 0
738 -704 0
738 -713 0
738 -722 0
738 -737 0
5 4 6 3 2 1 -535 -534 -736 737 0
736 -729 0
736 -735 0
-531 -530 -582 -647 -734 -311 -310 -309 735 0
734 -733 0
734 -340 0
734 -341 0
734 -342 0
734 -343 0
-732 -731 -730 733 0
732 -363 0
732 -439 0
732 -366 0
732 -367 0
732 -369 0
732 -440 0
732 -441 0
732 -442 0
732 -55 0
732 -54 0
732 -53 0
732 -52 0
732 -51 0
732 -50 0
732 -49 0
731 -434 0
731 -435 0
731 -356 0
731 -436 0
731 -358 0
731 -360 0
731 -361 0
731 -437 0
731 -42 0
731 -41 0
731 -40 0
731 -39 0
731 -38 0
731 -37 0
731 -36 0
730 -345 0
730 -429 0
730 -430 0
730 -349 0
730 -431 0
730 -350 0
730 -352 0
730 -432 0
730 -29 0
730 -28 0
730 -27 0
730 -26 0
730 -25 0
730 -24 0
730 -23 0
-728 -87 729 0
728 -727 0
728 -639 0
728 -558 0
728 -306 0
-119 -118 -117 -116 -726 727 0
726 -723 0
726 -724 0
726 -725 0
54 53 55 52 50 51 49 -218 -217 -216 -145 -143 -142 -215 -139 725 0
39 38 37 36 40 42 41 -213 -137 -136 -134 -212 -132 -211 -210 724 0
25 24 23 28 29 27 26 -208 -128 -126 -207 -125 -206 -205 -121 723 0
5 4 8 3 2 1 -535 -534 -721 722 0
721 -717 0
721 -720 0
-531 -505 -594 -504 -503 -593 -719 -718 -311 -310 -309 720 0
719 -511 0
719 -515 0
718 -573 0
718 -577 0
-716 -87 717 0
716 -714 0
716 -715 0
716 -586 0
716 -279 0
716 -280 0
716 -587 0
716 -281 0
-291 -287 715 0
-553 -549 714 0
7 4 6 8 3 2 -535 -534 -712 713 0
712 -708 0
712 -711 0
-531 -491 -490 -489 -488 -479 -710 -709 -311 -310 -309 711 0
710 -569 0
710 -511 0
709 -577 0
709 -529 0
-707 -87 708 0
707 -705 0
707 -706 0
707 -255 0
707 -264 0
707 -265 0
707 -266 0
707 -267 0
-287 -545 706 0
-305 -553 705 0
7 5 4 6 3 2 -535 -534 -703 704 0
703 -699 0
703 -702 0
-531 -528 -527 -522 -517 -516 -701 -700 -311 -310 -309 702 0
701 -492 0
701 -581 0
700 -511 0
700 -610 0
-698 -87 699 0
698 -696 0
698 -697 0
698 -292 0
698 -293 0
698 -298 0
698 -303 0
698 -304 0
-557 -268 697 0
-603 -287 696 0
7 5 4 8 3 2 -535 -534 -694 695 0
694 -690 0
694 -693 0
-531 -510 -509 -508 -507 -502 -692 -691 -311 -310 -309 693 0
692 -492 0
692 -573 0
691 -595 0
691 -529 0
-689 -87 690 0
689 -687 0
689 -688 0
689 -278 0
689 -283 0
689 -284 0
689 -285 0
689 -286 0
-549 -268 688 0
-305 -588 687 0
4 6 8 3 2 1 -535 -534 -685 686 0
685 -681 0
685 -684 0
-531 -473 -576 -575 -472 -471 -683 -682 -311 -310 -309 684 0
683 -492 0
683 -515 0
682 -569 0
682 -595 0
-680 -87 681 0
680 -678 0
680 -679 0
680 -247 0
680 -248 0
680 -551 0
680 -552 0
680 -249 0
-291 -268 679 0
-588 -545 678 0
5 6 8 3 2 1 -535 -534 -676 677 0
676 -672 0
676 -675 0
-531 -427 -514 -513 -422 -389 -674 -673 -311 -310 -309 675 0
674 -466 0
674 -577 0
673 -497 0
673 -595 0
-671 -87 672 0
671 -669 0
671 -670 0
671 -165 0
671 -198 0
671 -289 0
671 -290 0
671 -203 0
-553 -242 670 0
-588 -273 669 0
7 5 6 8 2 1 -535 -534 -667 668 0
667 -663 0
667 -666 0
-531 -456 -455 -450 -496 -494 -665 -664 -311 -310 -309 666 0
665 -466 0
665 -569 0
664 -610 0
664 -515 0
-662 -87 663 0
662 -660 0
662 -661 0
662 -270 0
662 -272 0
662 -226 0
662 -231 0
662 -232 0
-545 -242 661 0
-291 -603 660 0
7 5 4 6 2 1 -535 -534 -658 659 0
658 -654 0
658 -657 0
-531 -525 -524 -523 -609 -608 -656 -655 -311 -310 -309 657 0
656 -497 0
656 -529 0
655 -569 0
655 -581 0
-653 -87 654 0
653 -651 0
653 -652 0
653 -601 0
653 -602 0
653 -299 0
653 -300 0
653 -301 0
-305 -273 652 0
-557 -545 651 0
7 5 4 8 2 1 -535 -534 -649 650 0
649 -641 0
649 -648 0
-531 -647 -512 -574 -646 -311 -310 -309 648 0
647 -595 0
647 -610 0
646 -645 0
646 -340 0
646 -341 0
646 -342 0
646 -343 0
-644 -643 -642 645 0
644 -400 0
644 -416 0
644 -401 0
644 -417 0
644 -418 0
644 -402 0
644 -419 0
644 -403 0
644 -73 0
644 -69 0
644 -55 0
644 -54 0
644 -53 0
644 -52 0
644 -49 0
643 -395 0
643 -411 0
643 -396 0
643 -397 0
643 -398 0
643 -412 0
643 -413 0
643 -414 0
643 -72 0
643 -66 0
643 -42 0
643 -41 0
643 -40 0
643 -39 0
643 -36 0
642 -390 0
642 -391 0
642 -406 0
642 -407 0
642 -392 0
642 -408 0
642 -393 0
642 -409 0
642 -71 0
642 -63 0
642 -29 0
642 -28 0
642 -27 0
642 -26 0
642 -23 0
-640 -87 641 0
640 -638 0
640 -550 0
640 -288 0
640 -639 0
-603 -588 639 0
-119 -118 -117 -116 -637 638 0
637 -634 0
637 -635 0
637 -636 0
54 53 55 52 69 49 73 -179 -195 -178 -194 -193 -177 -192 -176 636 0
39 36 66 40 72 42 41 -190 -189 -188 -174 -173 -172 -187 -171 635 0
23 28 29 27 26 63 71 -185 -169 -184 -168 -183 -182 -167 -166 634 0
7 4 6 8 2 1 -535 -534 -632 633 0
632 -628 0
632 -631 0
-531 -482 -481 -480 -568 -566 -630 -629 -311 -310 -309 631 0
630 -497 0
630 -492 0
629 -610 0
629 -577 0
-627 -87 628 0
627 -625 0
627 -626 0
627 -542 0
627 -544 0
627 -256 0
627 -257 0
627 -258 0
-268 -273 626 0
-553 -603 625 0
7 5 6 8 3 1 -535 -534 -623 624 0
623 -619 0
623 -622 0
-531 -465 -464 -463 -462 -445 -621 -620 -311 -310 -309 622 0
621 -497 0
621 -573 0
620 -581 0
620 -515 0
-618 -87 619 0
618 -616 0
618 -617 0
618 -221 0
618 -238 0
618 -239 0
618 -240 0
618 -241 0
-549 -273 617 0
-291 -557 616 0
7 5 4 6 3 1 -535 -534 -614 615 0
614 -607 0
614 -613 0
-531 -520 -519 -518 -580 -579 -612 -611 -311 -310 -309 613 0
612 -466 0
612 -529 0
611 -573 0
611 -610 0
-525 -524 -523 -609 -608 610 0
609 -521 0
609 -449 0
609 -340 0
609 -341 0
609 -342 0
609 -343 0
608 -578 0
608 -421 0
608 -340 0
608 -341 0
608 -342 0
608 -343 0
-606 -87 607 0
606 -604 0
606 -605 0
606 -555 0
606 -556 0
606 -294 0
606 -295 0
606 -296 0
-305 -242 605 0
-603 -549 604 0
603 -601 0
603 -602 0
603 -299 0
603 -300 0
603 -301 0
-119 -118 -117 -116 -225 -297 602 0
-119 -118 -117 -116 -197 -554 601 0
7 5 4 8 3 1 -535 -534 -599 600 0
599 -592 0
599 -598 0
-531 -500 -499 -498 -572 -571 -597 -596 -311 -310 -309 598 0
597 -466 0
597 -511 0
596 -595 0
596 -581 0
-505 -594 -504 -503 -593 595 0
594 -501 0
594 -372 0
594 -340 0
594 -341 0
594 -342 0
594 -343 0
593 -570 0
593 -426 0
593 -340 0
593 -341 0
593 -342 0
593 -343 0
-591 -87 592 0
591 -589 0
591 -590 0
591 -547 0
591 -548 0
591 -274 0
591 -275 0
591 -276 0
-287 -242 590 0
-557 -588 589 0
588 -586 0
588 -279 0
588 -280 0
588 -587 0
588 -281 0
-119 -118 -117 -116 -148 -277 587 0
-119 -118 -117 -116 -202 -546 586 0
7 4 6 8 3 1 -535 -534 -584 585 0
584 -560 0
584 -583 0
-531 -582 -574 -493 -565 -311 -310 -309 583 0
582 -577 0
582 -581 0
-520 -519 -518 -580 -579 581 0
580 -461 0
580 -526 0
580 -340 0
580 -341 0
580 -342 0
580 -343 0
579 -578 0
579 -388 0
579 -340 0
579 -341 0
579 -342 0
579 -343 0
-528 -517 -516 578 0
-473 -576 -575 -472 -471 577 0
576 -483 0
576 -405 0
576 -340 0
576 -341 0
576 -342 0
576 -343 0
575 -567 0
575 -426 0
575 -340 0
575 -341 0
575 -342 0
575 -343 0
574 -569 0
574 -573 0
-500 -499 -498 -572 -571 573 0
572 -506 0
572 -444 0
572 -340 0
572 -341 0
572 -342 0
572 -343 0
571 -570 0
571 -388 0
571 -340 0
571 -341 0
571 -342 0
571 -343 0
-510 -509 -508 570 0
-482 -481 -480 -568 -566 569 0
568 -567 0
568 -421 0
568 -340 0
568 -341 0
568 -342 0
568 -343 0
-491 -490 -489 567 0
566 -474 0
566 -454 0
566 -340 0
566 -341 0
566 -342 0
566 -343 0
565 -564 0
565 -340 0
565 -341 0
565 -342 0
565 -343 0
-563 -562 -561 564 0
563 -383 0
563 -364 0
563 -365 0
563 -368 0
563 -370 0
563 -384 0
563 -385 0
563 -73 0
563 -69 0
563 -55 0
563 -54 0
563 -53 0
563 -52 0
563 -49 0
563 -386 0
562 -354 0
562 -355 0
562 -357 0
562 -359 0
562 -378 0
562 -379 0
562 -380 0
562 -72 0
562 -66 0
562 -42 0
562 -41 0
562 -40 0
562 -381 0
562 -39 0
562 -36 0
561 -346 0
561 -347 0
561 -348 0
561 -373 0
561 -374 0
561 -375 0
561 -351 0
561 -376 0
561 -71 0
561 -63 0
561 -29 0
561 -28 0
561 -27 0
561 -26 0
561 -23 0
-559 -87 560 0
559 -541 0
559 -269 0
559 -550 0
559 -558 0
-557 -553 558 0
557 -555 0
557 -556 0
557 -294 0
557 -295 0
557 -296 0
-119 -118 -117 -116 -302 -237 556 0
-119 -118 -117 -116 -164 -554 555 0
554 -292 0
554 -293 0
554 -304 0
553 -247 0
553 -248 0
553 -551 0
553 -552 0
553 -249 0
-119 -118 -117 -116 -181 -259 552 0
-119 -118 -117 -116 -202 -543 551 0
-549 -545 550 0
549 -547 0
549 -548 0
549 -274 0
549 -275 0
549 -276 0
-119 -118 -117 -116 -220 -282 548 0
-119 -118 -117 -116 -164 -546 547 0
546 -284 0
546 -285 0
546 -286 0
545 -542 0
545 -544 0
545 -256 0
545 -257 0
545 -258 0
-119 -118 -117 -116 -197 -543 544 0
543 -265 0
543 -266 0
543 -267 0
-119 -118 -117 -116 -230 -250 542 0
-119 -118 -117 -116 -540 541 0
540 -537 0
540 -538 0
540 -539 0
-162 54 53 55 52 69 49 73 -161 -160 -146 -144 -141 -140 -159 539 0
-157 39 36 66 40 72 42 41 -156 -155 -154 -135 -133 -131 -130 538 0
23 28 29 27 26 63 71 -152 -151 -127 -150 -149 -124 -123 -122 537 0
7 5 6 8 3 2 -535 -534 -533 536 0
535 -7 0
535 -3 0
535 -2 0
535 -1 0
534 -8 0
534 -6 0
534 -5 0
534 -4 0
533 -308 0
533 -532 0
-531 -530 -512 -493 -344 -311 -310 -309 532 0
531 11 0
531 12 0
530 -515 0
530 -529 0
-528 -527 -522 -517 -516 529 0
528 -478 0
528 -340 0
528 -341 0
528 -342 0
528 -343 0
527 -487 0
527 -526 0
527 -340 0
527 -341 0
527 -342 0
527 -343 0
-525 -524 -523 526 0
525 -454 0
525 -340 0
525 -341 0
525 -342 0
525 -343 0
524 -444 0
524 -449 0
524 -340 0
524 -341 0
524 -342 0
524 -343 0
523 -421 0
523 -478 0
523 -340 0
523 -341 0
523 -342 0
523 -343 0
522 -470 0
522 -521 0
522 -340 0
522 -341 0
522 -342 0
522 -343 0
-520 -519 -518 521 0
520 -444 0
520 -340 0
520 -341 0
520 -342 0
520 -343 0
519 -461 0
519 -454 0
519 -340 0
519 -341 0
519 -342 0
519 -343 0
518 -388 0
518 -478 0
518 -340 0
518 -341 0
518 -342 0
518 -343 0
517 -487 0
517 -454 0
517 -340 0
517 -341 0
517 -342 0
517 -343 0
516 -470 0
516 -444 0
516 -340 0
516 -341 0
516 -342 0
516 -343 0
-427 -514 -513 -422 -389 515 0
514 -405 0
514 -457 0
514 -340 0
514 -341 0
514 -342 0
514 -343 0
513 -372 0
513 -495 0
513 -340 0
513 -341 0
513 -342 0
513 -343 0
512 -497 0
512 -511 0
-510 -509 -508 -507 -502 511 0
510 -487 0
510 -340 0
510 -341 0
510 -342 0
510 -343 0
509 -405 0
509 -478 0
509 -340 0
509 -341 0
509 -342 0
509 -343 0
508 -470 0
508 -461 0
508 -340 0
508 -341 0
508 -342 0
508 -343 0
507 -506 0
507 -478 0
507 -340 0
507 -341 0
507 -342 0
507 -343 0
-505 -504 -503 506 0
505 -405 0
505 -340 0
505 -341 0
505 -342 0
505 -343 0
504 -372 0
504 -461 0
504 -340 0
504 -341 0
504 -342 0
504 -343 0
503 -426 0
503 -487 0
503 -340 0
503 -341 0
503 -342 0
503 -343 0
502 -501 0
502 -470 0
502 -340 0
502 -341 0
502 -342 0
502 -343 0
-500 -499 -498 501 0
500 -461 0
500 -340 0
500 -341 0
500 -342 0
500 -343 0
499 -405 0
499 -444 0
499 -340 0
499 -341 0
499 -342 0
499 -343 0
498 -388 0
498 -487 0
498 -340 0
498 -341 0
498 -342 0
498 -343 0
-456 -455 -450 -496 -494 497 0
496 -495 0
496 -449 0
496 -340 0
496 -341 0
496 -342 0
496 -343 0
-465 -464 -463 495 0
494 -428 0
494 -454 0
494 -340 0
494 -341 0
494 -342 0
494 -343 0
493 -466 0
493 -492 0
-491 -490 -489 -488 -479 492 0
491 -470 0
491 -340 0
491 -341 0
491 -342 0
491 -343 0
490 -372 0
490 -478 0
490 -340 0
490 -341 0
490 -342 0
490 -343 0
489 -487 0
489 -449 0
489 -340 0
489 -341 0
489 -342 0
489 -343 0
488 -483 0
488 -487 0
488 -340 0
488 -341 0
488 -342 0
488 -343 0
-486 -485 -484 487 0
486 -400 0
486 -332 0
486 -334 0
486 -335 0
486 -401 0
486 -336 0
486 -402 0
486 -403 0
486 -82 0
486 -73 0
486 -69 0
486 -68 0
486 -55 0
486 -54 0
486 -53 0
485 -395 0
485 -323 0
485 -324 0
485 -396 0
485 -397 0
485 -398 0
485 -326 0
485 -328 0
485 -81 0
485 -72 0
485 -66 0
485 -65 0
485 -42 0
485 -41 0
485 -40 0
484 -390 0
484 -391 0
484 -313 0
484 -314 0
484 -317 0
484 -392 0
484 -393 0
484 -318 0
484 -80 0
484 -71 0
484 -63 0
484 -62 0
484 -29 0
484 -28 0
484 -27 0
-482 -481 -480 483 0
482 -449 0
482 -340 0
482 -341 0
482 -342 0
482 -343 0
481 -372 0
481 -454 0
481 -340 0
481 -341 0
481 -342 0
481 -343 0
480 -470 0
480 -421 0
480 -340 0
480 -341 0
480 -342 0
480 -343 0
479 -474 0
479 -478 0
479 -340 0
479 -341 0
479 -342 0
479 -343 0
-477 -476 -475 478 0
477 -439 0
477 -332 0
477 -334 0
477 -335 0
477 -440 0
477 -336 0
477 -441 0
477 -442 0
477 -82 0
477 -73 0
477 -68 0
477 -55 0
477 -54 0
477 -53 0
477 -51 0
476 -434 0
476 -435 0
476 -436 0
476 -323 0
476 -324 0
476 -437 0
476 -326 0
476 -328 0
476 -81 0
476 -72 0
476 -65 0
476 -42 0
476 -41 0
476 -40 0
476 -38 0
475 -429 0
475 -430 0
475 -431 0
475 -313 0
475 -314 0
475 -317 0
475 -318 0
475 -80 0
475 -71 0
475 -62 0
475 -432 0
475 -29 0
475 -28 0
475 -27 0
475 -25 0
-473 -472 -471 474 0
473 -372 0
473 -340 0
473 -341 0
473 -342 0
473 -343 0
472 -405 0
472 -449 0
472 -340 0
472 -341 0
472 -342 0
472 -343 0
471 -426 0
471 -470 0
471 -340 0
471 -341 0
471 -342 0
471 -343 0
-469 -468 -467 470 0
469 -364 0
469 -365 0
469 -368 0
469 -332 0
469 -334 0
469 -335 0
469 -370 0
469 -336 0
469 -82 0
469 -76 0
469 -73 0
469 -69 0
469 -68 0
469 -54 0
469 -53 0
468 -354 0
468 -355 0
468 -357 0
468 -359 0
468 -323 0
468 -324 0
468 -326 0
468 -328 0
468 -81 0
468 -75 0
468 -72 0
468 -66 0
468 -65 0
468 -41 0
468 -40 0
467 -346 0
467 -347 0
467 -348 0
467 -313 0
467 -314 0
467 -317 0
467 -351 0
467 -318 0
467 -80 0
467 -74 0
467 -71 0
467 -63 0
467 -62 0
467 -28 0
467 -27 0
-465 -464 -463 -462 -445 466 0
465 -388 0
465 -340 0
465 -341 0
465 -342 0
465 -343 0
464 -426 0
464 -444 0
464 -340 0
464 -341 0
464 -342 0
464 -343 0
463 -461 0
463 -421 0
463 -340 0
463 -341 0
463 -342 0
463 -343 0
462 -457 0
462 -461 0
462 -340 0
462 -341 0
462 -342 0
462 -343 0
-460 -459 -458 461 0
460 -400 0
460 -383 0
460 -401 0
460 -384 0
460 -385 0
460 -402 0
460 -403 0
460 -76 0
460 -73 0
460 -69 0
460 -68 0
460 -54 0
460 -53 0
460 -52 0
460 -386 0
459 -395 0
459 -378 0
459 -396 0
459 -379 0
459 -397 0
459 -398 0
459 -380 0
459 -75 0
459 -72 0
459 -66 0
459 -65 0
459 -41 0
459 -40 0
459 -381 0
459 -39 0
458 -390 0
458 -391 0
458 -373 0
458 -392 0
458 -393 0
458 -374 0
458 -375 0
458 -376 0
458 -74 0
458 -71 0
458 -63 0
458 -62 0
458 -28 0
458 -27 0
458 -26 0
-456 -455 -450 457 0
456 -421 0
456 -340 0
456 -341 0
456 -342 0
456 -343 0
455 -426 0
455 -454 0
455 -340 0
455 -341 0
455 -342 0
455 -343 0
-453 -452 -451 454 0
453 -416 0
453 -439 0
453 -440 0
453 -417 0
453 -418 0
453 -441 0
453 -442 0
453 -419 0
453 -76 0
453 -73 0
453 -68 0
453 -54 0
453 -53 0
453 -52 0
453 -51 0
452 -434 0
452 -435 0
452 -436 0
452 -411 0
452 -437 0
452 -412 0
452 -413 0
452 -414 0
452 -75 0
452 -72 0
452 -65 0
452 -41 0
452 -40 0
452 -39 0
452 -38 0
451 -406 0
451 -429 0
451 -430 0
451 -431 0
451 -407 0
451 -408 0
451 -409 0
451 -74 0
451 -71 0
451 -62 0
451 -432 0
451 -28 0
451 -27 0
451 -26 0
451 -25 0
450 -388 0
450 -449 0
450 -340 0
450 -341 0
450 -342 0
450 -343 0
-448 -447 -446 449 0
448 -364 0
448 -416 0
448 -365 0
448 -368 0
448 -417 0
448 -370 0
448 -418 0
448 -419 0
448 -73 0
448 -70 0
448 -69 0
448 -68 0
448 -55 0
448 -53 0
448 -52 0
447 -354 0
447 -355 0
447 -357 0
447 -359 0
447 -411 0
447 -412 0
447 -413 0
447 -414 0
447 -72 0
447 -67 0
447 -66 0
447 -65 0
447 -42 0
447 -40 0
447 -39 0
446 -346 0
446 -347 0
446 -348 0
446 -406 0
446 -407 0
446 -408 0
446 -351 0
446 -409 0
446 -71 0
446 -64 0
446 -63 0
446 -62 0
446 -29 0
446 -27 0
446 -26 0
445 -428 0
445 -444 0
445 -340 0
445 -341 0
445 -342 0
445 -343 0
-443 -438 -433 444 0
443 -383 0
443 -439 0
443 -440 0
443 -384 0
443 -441 0
443 -385 0
443 -442 0
443 -73 0
443 -68 0
443 -55 0
443 -54 0
443 -53 0
443 -52 0
443 -51 0
443 -386 0
-10 -61 442 0
9 -57 441 0
-9 -59 440 0
10 -58 439 0
438 -434 0
438 -435 0
438 -436 0
438 -378 0
438 -379 0
438 -437 0
438 -380 0
438 -72 0
438 -65 0
438 -42 0
438 -41 0
438 -40 0
438 -381 0
438 -39 0
438 -38 0
9 -44 437 0
-9 -46 436 0
-10 -48 435 0
10 -45 434 0
433 -429 0
433 -430 0
433 -373 0
433 -431 0
433 -374 0
433 -375 0
433 -376 0
433 -71 0
433 -62 0
433 -432 0
433 -29 0
433 -28 0
433 -27 0
433 -26 0
433 -25 0
-9 -33 432 0
-31 9 431 0
-10 -35 430 0
-32 10 429 0
-427 -422 -389 428 0
427 -426 0
427 -340 0
427 -341 0
427 -342 0
427 -343 0
-425 -424 -423 426 0
425 -363 0
425 -330 0
425 -366 0
425 -367 0
425 -331 0
425 -333 0
425 -369 0
425 -337 0
425 -79 0
425 -69 0
425 -68 0
425 -55 0
425 -54 0
425 -52 0
425 -50 0
424 -321 0
424 -356 0
424 -358 0
424 -322 0
424 -360 0
424 -325 0
424 -361 0
424 -327 0
424 -78 0
424 -66 0
424 -65 0
424 -42 0
424 -41 0
424 -39 0
424 -37 0
423 -345 0
423 -349 0
423 -312 0
423 -350 0
423 -315 0
423 -316 0
423 -352 0
423 -77 0
423 -63 0
423 -62 0
423 -319 0
423 -29 0
423 -28 0
423 -26 0
423 -24 0
422 -405 0
422 -421 0
422 -340 0
422 -341 0
422 -342 0
422 -343 0
-420 -415 -410 421 0
420 -330 0
420 -416 0
420 -331 0
420 -333 0
420 -417 0
420 -418 0
420 -337 0
420 -419 0
420 -79 0
420 -73 0
420 -69 0
420 -68 0
420 -55 0
420 -54 0
420 -52 0
-11 -22 419 0
-12 -60 418 0
-19 11 417 0
12 -56 416 0
415 -321 0
415 -322 0
415 -411 0
415 -325 0
415 -412 0
415 -413 0
415 -414 0
415 -327 0
415 -78 0
415 -72 0
415 -66 0
415 -65 0
415 -42 0
415 -41 0
415 -39 0
-11 -20 414 0
-12 -47 413 0
12 -43 412 0
-18 11 411 0
410 -406 0
410 -312 0
410 -407 0
410 -315 0
410 -316 0
410 -408 0
410 -409 0
410 -77 0
410 -71 0
410 -63 0
410 -62 0
410 -319 0
410 -29 0
410 -28 0
410 -26 0
-11 -21 409 0
-17 11 408 0
-12 -34 407 0
-30 12 406 0
-404 -399 -394 405 0
404 -363 0
404 -400 0
404 -366 0
404 -367 0
404 -401 0
404 -369 0
404 -402 0
404 -403 0
404 -70 0
404 -69 0
404 -68 0
404 -55 0
404 -53 0
404 -52 0
404 -50 0
-12 -61 403 0
-11 -59 402 0
11 -57 401 0
12 -58 400 0
399 -395 0
399 -356 0
399 -358 0
399 -360 0
399 -396 0
399 -361 0
399 -397 0
399 -398 0
399 -67 0
399 -66 0
399 -65 0
399 -42 0
399 -40 0
399 -39 0
399 -37 0
-12 -48 398 0
11 -44 397 0
-11 -46 396 0
12 -45 395 0
394 -345 0
394 -390 0
394 -391 0
394 -349 0
394 -350 0
394 -392 0
394 -393 0
394 -352 0
394 -64 0
394 -63 0
394 -62 0
394 -29 0
394 -27 0
394 -26 0
394 -24 0
-31 11 393 0
-11 -33 392 0
-12 -35 391 0
-32 12 390 0
389 -372 0
389 -388 0
389 -340 0
389 -341 0
389 -342 0
389 -343 0
-387 -382 -377 388 0
387 -330 0
387 -383 0
387 -331 0
387 -333 0
387 -384 0
387 -385 0
387 -337 0
387 -79 0
387 -73 0
387 -70 0
387 -69 0
387 -68 0
387 -55 0
387 -52 0
387 -386 0
-19 13 386 0
-13 -22 385 0
-14 -60 384 0
14 -56 383 0
382 -321 0
382 -322 0
382 -378 0
382 -325 0
382 -379 0
382 -380 0
382 -327 0
382 -78 0
382 -72 0
382 -67 0
382 -66 0
382 -65 0
382 -42 0
382 -381 0
382 -39 0
-13 -20 381 0
-18 13 380 0
14 -43 379 0
-14 -47 378 0
377 -312 0
377 -373 0
377 -315 0
377 -316 0
377 -374 0
377 -375 0
377 -376 0
377 -77 0
377 -71 0
377 -64 0
377 -63 0
377 -62 0
377 -319 0
377 -29 0
377 -26 0
-14 -34 376 0
-13 -21 375 0
-30 14 374 0
-17 13 373 0
-371 -362 -353 372 0
371 -363 0
371 -364 0
371 -365 0
371 -366 0
371 -367 0
371 -368 0
371 -369 0
371 -370 0
371 -69 0
371 -68 0
371 -55 0
371 -54 0
371 -53 0
371 -52 0
371 -50 0
-14 -61 370 0
-10 -60 369 0
13 -57 368 0
-9 -22 367 0
-19 9 366 0
-13 -59 365 0
14 -58 364 0
10 -56 363 0
362 -354 0
362 -355 0
362 -356 0
362 -357 0
362 -358 0
362 -359 0
362 -360 0
362 -361 0
362 -66 0
362 -65 0
362 -42 0
362 -41 0
362 -40 0
362 -39 0
362 -37 0
-9 -20 361 0
-10 -47 360 0
13 -44 359 0
-18 9 358 0
-13 -46 357 0
10 -43 356 0
-14 -48 355 0
14 -45 354 0
353 -345 0
353 -346 0
353 -347 0
353 -348 0
353 -349 0
353 -350 0
353 -351 0
353 -352 0
353 -63 0
353 -62 0
353 -29 0
353 -28 0
353 -27 0
353 -26 0
353 -24 0
-9 -21 352 0
-31 13 351 0
-10 -34 350 0
-17 9 349 0
-14 -35 348 0
-13 -33 347 0
-32 14 346 0
-30 10 345 0
344 -339 0
344 -340 0
344 -341 0
344 -342 0
344 -343 0
-18 17 343 0
-21 20 342 0
-19 18 341 0
-20 22 340 0
-338 -329 -320 339 0
338 -330 0
338 -331 0
338 -332 0
338 -333 0
338 -334 0
338 -335 0
338 -336 0
338 -337 0
338 -82 0
338 -79 0
338 -73 0
338 -69 0
338 -55 0
338 -54 0
338 -49 0
-16 -61 337 0
-15 -22 336 0
-16 -60 335 0
16 -56 334 0
16 -58 333 0
-19 15 332 0
15 -57 331 0
-15 -59 330 0
329 -321 0
329 -322 0
329 -323 0
329 -324 0
329 -325 0
329 -326 0
329 -327 0
329 -328 0
329 -81 0
329 -78 0
329 -72 0
329 -66 0
329 -42 0
329 -41 0
329 -36 0
16 -43 328 0
-16 -48 327 0
-16 -47 326 0
16 -45 325 0
-15 -20 324 0
-18 15 323 0
15 -44 322 0
-15 -46 321 0
320 -312 0
320 -313 0
320 -314 0
320 -315 0
320 -316 0
320 -317 0
320 -318 0
320 -80 0
320 -77 0
320 -71 0
320 -63 0
320 -319 0
320 -29 0
320 -28 0
320 -23 0
-15 -33 319 0
-30 16 318 0
-16 -34 317 0
-16 -35 316 0
-32 16 315 0
-15 -21 314 0
-17 15 313 0
-31 15 312 0
311 10 0
311 9 0
310 14 0
310 13 0
309 15 0
309 16 0
-307 -87 308 0
307 -120 0
307 -269 0
307 -288 0
307 -306 0
-305 -291 306 0
305 -292 0
305 -293 0
305 -298 0
305 -303 0
305 -304 0
-119 -118 -117 -116 -254 304 0
-119 -118 -117 -116 -302 -263 303 0
302 -299 0
302 -300 0
302 -301 0
-119 -118 -117 -116 -230 301 0
-119 -118 -117 -116 -225 -220 300 0
-119 -118 -117 -116 -254 -197 299 0
-119 -118 -117 -116 -297 -246 298 0
297 -294 0
297 -295 0
297 -296 0
-119 -118 -117 -116 -220 296 0
-119 -118 -117 -116 -230 -237 295 0
-119 -118 -117 -116 -254 -164 294 0
-119 -118 -117 -116 -230 -263 293 0
-119 -118 -117 -116 -220 -246 292 0
291 -165 0
291 -198 0
291 -289 0
291 -290 0
291 -203 0
-119 -118 -117 -116 -233 -181 290 0
-119 -118 -117 -116 -271 -148 289 0
-287 -273 288 0
287 -278 0
287 -283 0
287 -284 0
287 -285 0
287 -286 0
-119 -118 -117 -116 -263 286 0
-119 -118 -117 -116 -254 -181 285 0
-119 -118 -117 -116 -237 -246 284 0
-119 -118 -117 -116 -254 -282 283 0
282 -279 0
282 -280 0
282 -281 0
-119 -118 -117 -116 -181 281 0
-119 -118 -117 -116 -237 -148 280 0
-119 -118 -117 -116 -263 -202 279 0
-119 -118 -117 -116 -246 -277 278 0
277 -274 0
277 -275 0
277 -276 0
-119 -118 -117 -116 -237 276 0
-119 -118 -117 -116 -220 -181 275 0
-119 -118 -117 -116 -263 -164 274 0
273 -270 0
273 -272 0
273 -226 0
273 -231 0
273 -232 0
-119 -118 -117 -116 -225 -271 272 0
271 -239 0
271 -240 0
271 -241 0
-119 -118 -117 -116 -230 -204 270 0
-268 -242 269 0
268 -255 0
268 -264 0
268 -265 0
268 -266 0
268 -267 0
-119 -118 -117 -116 -246 267 0
-119 -118 -117 -116 -254 -148 266 0
-119 -118 -117 -116 -225 -263 265 0
-119 -118 -117 -116 -263 -259 264 0
263 -260 0
263 -261 0
263 -262 0
54 53 55 69 68 73 82 -179 -178 -112 -177 -111 -110 -108 -176 262 0
81 66 40 65 72 42 -104 41 -102 -174 -173 -172 -100 -99 -171 261 0
28 29 27 63 62 71 80 -94 -169 -168 -93 -90 -89 -167 -166 260 0
259 -256 0
259 -257 0
259 -258 0
-119 -118 -117 -116 -225 258 0
-119 -118 -117 -116 -230 -148 257 0
-119 -118 -117 -116 -197 -246 256 0
-119 -118 -117 -116 -254 -250 255 0
254 -251 0
254 -252 0
254 -253 0
54 53 55 68 51 73 82 -218 -217 -112 -216 -111 -110 -108 -215 253 0
38 81 40 65 72 42 -104 41 -102 -213 -100 -99 -212 -211 -210 252 0
25 28 29 27 -208 62 71 80 -94 -93 -90 -89 -207 -206 -205 251 0
250 -247 0
250 -248 0
250 -249 0
-119 -118 -117 -116 -148 249 0
-119 -118 -117 -116 -225 -181 248 0
-119 -118 -117 -116 -246 -202 247 0
246 -243 0
246 -244 0
246 -245 0
54 53 76 69 68 73 82 -112 -146 -111 -110 -108 -144 -141 -140 245 0
81 66 40 65 75 72 -104 41 -102 -100 -99 -135 -133 -131 -130 244 0
28 27 63 62 74 71 80 -94 -127 -93 -90 -89 -124 -123 -122 243 0
242 -221 0
242 -238 0
242 -239 0
242 -240 0
242 -241 0
-119 -118 -117 -116 -164 241 0
-119 -118 -117 -116 -220 -202 240 0
-119 -118 -117 -116 -197 -237 239 0
-119 -118 -117 -116 -237 -233 238 0
237 -234 0
237 -235 0
237 -236 0
-162 54 53 76 52 69 68 73 -179 -178 -161 -160 -177 -159 -176 236 0
-157 39 66 40 65 75 72 41 -156 -174 -173 -155 -172 -154 -171 235 0
28 27 26 63 62 74 71 -152 -151 -150 -169 -168 -149 -167 -166 234 0
233 -226 0
233 -231 0
233 -232 0
-119 -118 -117 -116 -197 232 0
-119 -118 -117 -116 -230 -202 231 0
230 -227 0
230 -228 0
230 -229 0
54 53 76 52 68 51 73 -195 -218 -217 -194 -193 -216 -215 -192 229 0
39 38 40 65 75 72 41 -190 -189 -188 -213 -187 -212 -211 -210 228 0
25 28 27 26 -208 62 74 71 -185 -184 -183 -207 -206 -205 -182 227 0
-119 -118 -117 -116 -225 -164 226 0
225 -222 0
225 -223 0
225 -224 0
53 55 52 69 68 73 70 -195 -194 -146 -193 -144 -141 -192 -140 224 0
39 67 66 40 65 72 42 -190 -189 -188 -187 -135 -133 -131 -130 223 0
29 27 26 64 63 62 71 -185 -127 -184 -183 -182 -124 -123 -122 222 0
-119 -118 -117 -116 -220 -204 221 0
220 -209 0
220 -214 0
220 -219 0
-162 54 53 55 52 68 51 73 -218 -161 -217 -160 -216 -215 -159 219 0
218 61 0
218 10 0
217 57 0
217 -9 0
216 59 0
216 9 0
215 58 0
215 -10 0
-157 39 38 40 65 72 42 41 -156 -213 -155 -154 -212 -211 -210 214 0
213 44 0
213 -9 0
212 46 0
212 9 0
211 48 0
211 10 0
210 45 0
210 -10 0
25 28 29 27 26 -208 62 71 -152 -151 -150 -207 -149 -206 -205 209 0
208 33 0
208 9 0
207 31 0
207 -9 0
206 35 0
206 10 0
205 32 0
205 -10 0
204 -165 0
204 -198 0
204 -203 0
-119 -118 -117 -116 -202 203 0
202 -199 0
202 -200 0
202 -201 0
54 55 52 50 69 68 79 -113 -145 -109 -107 -143 -142 -106 -139 201 0
39 37 66 65 78 42 41 -103 -137 -101 -136 -98 -134 -132 -97 200 0
24 28 29 26 -95 63 62 77 -128 -92 -91 -126 -88 -125 -121 199 0
-119 -118 -117 -116 -197 -181 198 0
197 -186 0
197 -191 0
197 -196 0
54 55 52 69 68 79 73 -195 -113 -194 -193 -109 -107 -192 -106 196 0
195 11 0
195 22 0
194 60 0
194 12 0
193 19 0
193 -11 0
192 56 0
192 -12 0
39 66 65 78 72 42 41 -103 -190 -189 -188 -101 -187 -98 -97 191 0
190 11 0
190 20 0
189 47 0
189 12 0
188 43 0
188 -12 0
187 18 0
187 -11 0
28 29 26 -95 63 62 77 71 -185 -184 -92 -91 -183 -88 -182 186 0
185 11 0
185 21 0
184 17 0
184 -11 0
183 34 0
183 12 0
182 30 0
182 -12 0
181 -170 0
181 -175 0
181 -180 0
53 55 52 50 69 68 70 -179 -178 -145 -177 -143 -142 -176 -139 180 0
179 61 0
179 12 0
178 59 0
178 11 0
177 57 0
177 -11 0
176 58 0
176 -12 0
39 37 67 66 40 65 42 -174 -173 -137 -172 -136 -134 -132 -171 175 0
174 48 0
174 12 0
173 44 0
173 -11 0
172 46 0
172 11 0
171 45 0
171 -12 0
24 29 27 26 64 63 62 -128 -169 -168 -126 -125 -167 -166 -121 170 0
169 31 0
169 -11 0
168 33 0
168 11 0
167 35 0
167 12 0
166 32 0
166 -12 0
-119 -118 -117 -116 -164 -148 165 0
164 -153 0
164 -158 0
164 -163 0
-162 55 52 69 68 79 73 70 -113 -161 -160 -109 -107 -159 -106 163 0
162 19 0
162 -13 0
161 22 0
161 13 0
160 60 0
160 14 0
159 56 0
159 -14 0
-157 39 67 66 65 78 72 42 -103 -156 -155 -101 -154 -98 -97 158 0
157 20 0
157 13 0
156 18 0
156 -13 0
155 43 0
155 -14 0
154 47 0
154 14 0
29 26 -95 64 63 62 77 71 -152 -151 -150 -92 -91 -149 -88 153 0
152 34 0
152 14 0
151 21 0
151 13 0
150 30 0
150 -14 0
149 17 0
149 -13 0
148 -129 0
148 -138 0
148 -147 0
54 53 55 52 50 69 68 -146 -145 -144 -143 -142 -141 -140 -139 147 0
146 61 0
146 14 0
145 60 0
145 10 0
144 57 0
144 -13 0
143 22 0
143 9 0
142 19 0
142 -9 0
141 59 0
141 13 0
140 58 0
140 -14 0
139 56 0
139 -10 0
39 37 66 40 65 42 41 -137 -136 -135 -134 -133 -132 -131 -130 138 0
137 20 0
137 9 0
136 47 0
136 10 0
135 44 0
135 -13 0
134 18 0
134 -9 0
133 46 0
133 13 0
132 43 0
132 -10 0
131 48 0
131 14 0
130 45 0
130 -14 0
24 28 29 27 26 63 62 -128 -127 -126 -125 -124 -123 -122 -121 129 0
128 21 0
128 9 0
127 31 0
127 -13 0
126 34 0
126 10 0
125 17 0
125 -9 0
124 35 0
124 14 0
123 33 0
123 13 0
122 32 0
122 -14 0
121 30 0
121 -10 0
-119 -118 -117 -116 -115 120 0
119 18 0
119 -17 0
118 21 0
118 -20 0
117 19 0
117 -18 0
116 20 0
116 -22 0
115 -96 0
115 -105 0
115 -114 0
54 55 69 49 79 73 82 -113 -112 -111 -110 -109 -108 -107 -106 114 0
113 61 0
113 16 0
112 15 0
112 22 0
111 60 0
111 16 0
110 56 0
110 -16 0
109 58 0
109 -16 0
108 19 0
108 -15 0
107 57 0
107 -15 0
106 59 0
106 15 0
36 81 66 78 72 42 -104 41 -103 -102 -101 -100 -99 -98 -97 105 0
104 43 0
104 -16 0
103 48 0
103 16 0
102 47 0
102 16 0
101 45 0
101 -16 0
100 15 0
100 20 0
99 18 0
99 -15 0
98 44 0
98 -15 0
97 46 0
97 15 0
23 28 29 -95 63 77 71 80 -94 -93 -92 -91 -90 -89 -88 96 0
95 33 0
95 15 0
94 30 0
94 -16 0
93 34 0
93 16 0
92 35 0
92 16 0
91 32 0
91 -16 0
90 15 0
90 21 0
89 17 0
89 -15 0
88 31 0
88 -15 0
87 -83 0
87 -84 0
87 -85 0
87 -86 0
-11 -12 86 0
-13 -14 85 0
-9 -10 84 0
-15 -16 83 0
